123 5
10 10 10 10 10 

0 0 0 0 0 0 1 2 
0 0 0 0 0 0 3 3 8 9 
9 0 1 0 0 0 2 12 4 
7 0 1 0 0 0 1 5 
5 0 2 0 0 0 1 6 
8 0 3 0 0 0 1 7 
7 0 3 0 0 0 1 10 
8 0 2 0 0 0 1 10 
1 0 2 0 0 0 1 10 
8 0 2 0 0 0 1 11 
4 0 6 0 0 0 1 13 
6 0 3 0 0 0 1 13 
0 0 0 0 0 0 1 14 
0 0 0 0 0 0 2 15 17 
6 0 0 1 0 0 1 16 
2 0 0 3 0 0 2 24 18 
5 0 0 1 0 0 2 24 21 
7 0 0 2 0 0 1 19 
2 0 0 3 0 0 1 20 
3 0 0 5 0 0 1 22 
5 0 0 3 0 0 1 22 
2 0 0 2 0 0 1 23 
10 0 0 2 0 0 1 25 
6 0 0 3 0 0 1 25 
0 0 0 0 0 0 1 26 
0 0 0 0 0 0 2 27 36 
4 0 0 0 1 0 1 28 
7 0 0 0 3 0 1 29 
4 0 0 0 4 0 2 35 30 
2 0 0 0 2 0 1 31 
3 0 0 0 1 0 2 34 32 
2 0 0 0 2 0 1 33 
9 0 0 0 3 0 1 37 
10 0 0 0 3 0 1 37 
1 0 0 0 2 0 1 37 
10 0 0 0 4 0 1 37 
0 0 0 0 0 0 2 38 50 
0 0 0 0 0 0 3 39 40 42 
4 0 1 0 0 0 1 41 
4 0 6 0 0 0 1 41 
7 0 2 0 0 0 2 46 43 
5 0 3 0 0 0 2 46 44 
7 0 3 0 0 0 1 44 
3 0 1 0 0 0 1 45 
5 0 1 0 0 0 1 47 
5 0 2 0 0 0 2 47 112 
9 0 3 0 0 0 1 48 
4 0 3 0 0 0 1 49 
0 0 0 0 0 0 1 62 
0 0 0 0 0 0 1 51 
4 0 0 0 0 1 2 60 52 
3 0 0 0 0 2 3 57 53 120 
5 0 0 0 0 3 1 54 
2 0 0 0 0 2 1 55 
7 0 0 0 0 5 2 59 56 
8 0 0 0 0 2 1 58 
4 0 0 0 0 3 1 58 
6 0 0 0 0 1 1 61 
3 0 0 0 0 5 1 61 
2 0 0 0 0 1 1 61 
0 0 0 0 0 0 1 62 
0 0 0 0 0 0 5 63 75 87 99 111 
0 0 0 0 0 0 2 64 65 
5 1 0 0 0 0 2 73 66 
7 1 0 0 0 0 2 73 68 
5 2 0 0 0 0 2 67 103 
2 2 0 0 0 0 1 69 
1 5 0 0 0 0 1 69 
7 3 0 0 0 0 1 70 
3 4 0 0 0 0 1 71 
4 4 0 0 0 0 1 72 
10 2 0 0 0 0 1 74 
1 1 0 0 0 0 1 74 
0 0 0 0 0 0 1 123 
0 0 0 0 0 0 3 76 80 84 
1 0 0 0 1 0 2 82 77 
2 0 0 0 2 0 1 78 
9 0 0 0 2 0 1 79 
4 0 0 0 3 0 1 81 
4 0 0 0 5 0 1 81 
7 0 0 0 3 0 1 83 
2 0 0 0 1 0 1 83 
10 0 0 0 2 0 1 85 
5 0 0 0 1 0 1 85 
7 0 0 0 5 0 1 86 
0 0 0 0 0 0 1 123 
0 0 0 0 0 0 2 88 89 
6 0 0 1 0 0 2 92 90 
3 0 0 2 0 0 2 92 91 
8 0 0 2 0 0 1 91 
9 0 0 4 0 0 1 93 
6 0 0 2 0 0 1 93 
6 0 0 4 0 0 2 95 94 
4 0 0 2 0 0 1 96 
1 0 0 3 0 0 1 96 
2 0 0 2 0 0 1 97 
5 0 0 3 0 0 1 98 
0 0 0 0 0 0 1 123 
0 0 0 0 0 0 1 100 
3 0 0 1 0 0 1 101 
5 0 0 1 0 0 1 102 
5 0 0 2 0 0 2 104 103 
2 0 0 1 0 0 2 106 105 
2 0 0 3 0 0 1 105 
8 0 0 2 0 0 1 107 
5 0 0 5 0 0 1 107 
5 0 0 2 0 0 2 109 108 
1 0 0 5 0 0 1 110 
8 0 0 3 0 0 1 110 
0 0 0 0 0 0 1 123 
0 0 0 0 0 0 4 112 114 118 119 
4 0 0 0 1 0 1 113 
9 0 0 0 3 0 1 115 
10 0 0 0 2 0 1 115 
8 0 0 0 4 0 1 116 
5 0 0 0 3 0 1 117 
3 0 0 0 1 0 1 120 
7 0 0 0 5 0 1 120 
4 0 0 0 1 0 1 120 
3 0 0 0 2 0 1 121 
9 0 0 0 3 0 1 122 
0 0 0 0 0 0 1 123 
0 0 0 0 0 0 0 
